int NumberPatients = 172
int NumberOfRooms = 9
int NumberSurgeons = 20
int NumberOfDays = 6
Duration = [201,146,68,32,98,112,32,53,31,32,252,103,105,130,130,88,93,39,201,72,165,31,47,31,119,103,32,103,64,103,60,32,210,210,103,29,66,32,66,217,32,119,105,66,132,46,130,32,210,159,47,66,119,47,47,32,98,146,66,53,168,38,103,32,46,119,47,119,138,32,80,46,55,60,32,98,31,68,105,168,32,100,119,201,66,47,115,117,66,98,103,60,98,157,131,60,47,32,166,64,107,47,103,119,66,88,72,46,72,64,98,103,66,98,39,31,31,119,85,30,103,130,103,47,50,72,31,87,78,32,119,67,50,96,72,210,53,72,98,159,101,32,123,210,119,66,119,132,98,68,210,41,32,217,60,66,32,103,32,32,103,119,238,66,46,32,103,93,112,72,119,105];
Priority = [0,0,0,0,0,0,0,0,0,0,0,0,0,0,0,0,0,0,0,0,0,0,0,0,0,0,0,0,0,0,0,0,0,0,0,0,0,0,0,0,0,0,0,0,0,0,0,0,0,0,0,0,0,0,0,0,0,0,0,0,0,0,0,0,0,0,0,0,0,0,0,0,0,0,0,0,0,0,0,0,0,0,0,0,0,0,0,0,0,0,0,0,0,0,0,0,0,0,0,0,0,0,0,0,0,0,0,0,0,0,1,0,0,0,0,0,0,0,0,0,0,0,0,0,0,0,0,0,0,0,0,0,0,0,0,0,0,0,0,0,0,0,0,0,0,0,0,0,0,0,0,0,0,0,0,0,0,0,0,0,0,0,1,0,0,0,0,0,0,0,0,0];
Waiting = [462,155,127,106,141,487,204,87,123,163,281,78,534,57,32,141,120,45,221,158,135,45,121,480,193,127,67,169,31,25,394,39,191,141,164,106,242,284,123,63,200,375,288,25,39,220,39,487,190,39,161,248,518,137,1096,178,99,338,44,52,24,144,221,67,57,24,150,199,228,165,120,45,36,191,158,24,144,204,191,102,59,51,176,35,116,37,135,150,60,120,204,507,32,297,375,499,155,204,284,148,221,35,134,148,116,199,319,22,80,63,43,77,214,72,24,211,92,107,196,25,70,176,176,25,338,59,70,277,63,312,106,310,38,148,39,382,148,169,284,37,49,39,148,84,98,121,45,23,58,183,141,84,45,63,106,137,221,56,79,249,78,487,57,113,207,57,43,57,53,63,284,74];
Surgeon = [15,6,5,5,5,8,1,5,2,3,5,4,10,1,3,11,4,1,9,2,6,2,5,6,2,1,2,5,5,3,2,1,11,5,6,1,3,6,1,3,6,4,9,5,8,4,6,3,4,6,1,6,6,3,4,11,8,5,7,5,5,6,2,6,12,6,5,9,5,5,4,5,2,10,4,1,7,1,5,1,1,1,6,3,1,5,12,1,3,6,5,3,3,6,1,5,13,2,13,2,6,7,6,5,7,2,10,7,6,5,6,7,15,6,3,6,6,1,5,1,3,4,5,4,2,3,3,3,3,10,1,1,6,1,2,3,3,2,2,2,4,1,13,3,1,3,4,4,7,1,4,5,3,12,4,10,8,6,5,2,4,5,5,1,5,2,6,3,5,4,2,5];
BlockAvailability = [[[0,0],[0,0],[0,0],[0,0],[0,0],[0,0],[1,1],[1,1],[0,1]],[[0,1],[0,0],[0,0],[0,0],[0,1],[1,0],[0,1],[0,0],[0,0]],[[1,1],[0,0],[0,0],[0,0],[0,0],[1,0],[0,1],[1,0],[1,0]],[[0,0],[0,0],[0,1],[0,0],[1,0],[0,0],[0,0],[1,1],[0,0]],[[0,0],[0,0],[0,1],[0,0],[0,0],[0,0],[0,0],[1,1],[0,0]],[[0,0],[0,0],[0,1],[1,0],[0,0],[0,0],[0,0],[0,0],[0,1]]];
SurgeonAvailability = [[[1,0],[0,1],[1,1],[0,1],[1,1],[1,1]],[[1,1],[1,0],[1,0],[1,1],[1,1],[1,0]],[[0,1],[1,1],[0,0],[1,1],[1,1],[1,0]],[[1,1],[1,1],[1,1],[0,1],[0,1],[0,1]],[[1,0],[1,0],[1,1],[0,0],[1,0],[1,1]],[[0,1],[0,0],[1,1],[1,1],[1,0],[1,1]],[[1,0],[0,1],[1,1],[1,0],[1,1],[0,1]],[[1,1],[0,0],[1,1],[0,1],[0,1],[0,0]],[[1,0],[1,1],[0,0],[1,0],[1,1],[1,1]],[[1,1],[1,1],[1,0],[1,0],[1,0],[1,0]],[[1,1],[1,1],[1,1],[1,1],[1,1],[1,1]],[[0,1],[1,1],[1,1],[1,1],[1,1],[0,0]],[[1,1],[1,1],[1,1],[1,1],[1,1],[1,0]],[[1,1],[1,0],[1,1],[1,0],[1,1],[1,1]],[[1,1],[1,1],[1,1],[1,1],[1,1],[1,1]],[[1,1],[0,1],[1,1],[0,1],[1,1],[0,1]],[[1,1],[1,1],[1,0],[1,1],[0,0],[1,1]],[[1,0],[1,0],[1,1],[1,1],[1,1],[0,1]],[[1,1],[0,1],[1,0],[1,1],[1,0],[0,1]],[[1,1],[1,1],[1,1],[1,0],[1,0],[1,0]]];
